package kokkos newton on neigh half

units metal
boundary p p p

# create the simulation system without reading external data file
atom_style atomic/kk
lattice fcc 3.6
region box block 0 4 0 4 0 4
create_box 1 box
create_atoms 1 box

mass 1 58.693

# the model will automatically run on the same device as the kokkos code
pair_style metatomic/kk nickel-lj.pt
pair_coeff * * 28

# simulation settings
timestep 0.001 # 1fs timestep
fix 1 all npt temp 243 243 $(100 * dt) iso 0 0 $(1000 * dt) drag 1.0

# output setup
thermo 10

run_style verlet/kk
# run the simulation for 10000 steps
run 10000
